objective value:                                  -72
t_x6                                                1 	(obj:-100)
t_y6_293                                            1 	(obj:1)
t_y6_282                                            1 	(obj:1)
t_y2_6                                              1 	(obj:1)
t_y6_319                                            1 	(obj:1)
t_y6_419                                            1 	(obj:1)
t_y6_341                                            1 	(obj:1)
t_y6_479                                            1 	(obj:1)
t_y6_387                                            1 	(obj:1)
t_y6_178                                            1 	(obj:1)
t_y6_367                                            1 	(obj:1)
t_y6_67                                             1 	(obj:1)
t_y6_536                                            1 	(obj:1)
t_y6_503                                            1 	(obj:1)
t_y6_203                                            1 	(obj:1)
t_y6_183                                            1 	(obj:1)
t_y6_296                                            1 	(obj:1)
t_y6_206                                            1 	(obj:1)
t_y6_227                                            1 	(obj:1)
t_y6_169                                            1 	(obj:1)
t_y6_36                                             1 	(obj:1)
t_y6_113                                            1 	(obj:1)
t_y6_493                                            1 	(obj:1)
t_y6_192                                            1 	(obj:1)
t_y6_426                                            1 	(obj:1)
t_y6_7                                              1 	(obj:1)
t_y6_198                                            1 	(obj:1)
t_y6_255                                            1 	(obj:1)
t_y6_481                                            1 	(obj:1)
